DATASET = "thpack4";
INSTANCE = "044";

WIDTH = 233;
HEIGHT = 220;
LENGTH = 587;

NO_OF_SHAPES = 10;
size = [|
  114,67,25 |
  92,79,25 |
  89,87,36 |
  95,71,36 |
  90,83,43 |
  93,39,28 |
  69,54,31 |
  107,61,37 |
  98,52,40 |
  83,69,60 |
|];

verticality = [|
  0,0,1 |
  0,0,1 |
  0,0,1 |
  0,1,1 |
  0,1,1 |
  0,1,1 |
  0,1,1 |
  0,1,1 |
  0,1,1 |
  1,1,1 |
|];

box_count = [
  20,
  15,
  19,
  14,
  12,
  12,
  16,
  13,
  8,
  9,
];
